Problem:    
Rows:       256
Columns:    89 (72 integer, 72 binary)
Non-zeros:  960
Status:     INTEGER OPTIMAL
Objective:  value = 71.044171 (MINimum)

   No.   Row name        Activity     Lower bound   Upper bound
------ ------------    ------------- ------------- -------------
     1 r.5                   1071.04             0               
     2 r.6                  -978.064      -984.223               
     3 r.7                   71.0442             0               
     4 r.8                   37.3106      -988.236               
     5 r.9                   71.0442             0               
     6 r.10                  51.6869      -982.729               
     7 r.11                  1071.04             0               
     8 r.12                 -948.313      -987.786               
     9 r.13                  71.0442             0               
    10 r.14                  51.6869      -972.375               
    11 r.15                  1071.04             0               
    12 r.16                 -960.527      -981.259               
    13 r.17                  71.0442             0               
    14 r.18                 -978.814      -984.973               
    15 r.19                  1071.04             0               
    16 r.20                 -979.268      -985.686               
    17 r.21                  1071.04             0               
    18 r.22                 -964.337      -986.273               
    19 r.23                  71.0442             0               
    20 r.24                    38.81      -987.773               
    21 r.25                  1071.04             0               
    22 r.26                 -998.784      -998.784               
    23 r.27                  71.0442             0               
    24 r.28                  10.6565      -991.936               
    25 r.29                  1071.04             0               
    26 r.30                 -928.956      -966.266               
    27 r.31                  71.0442             0               
    28 r.32                  71.0442      -980.692               
    29 r.33                  71.0442             0               
    30 r.34                  71.0442       -966.89               
    31 r.35                  1071.04             0               
    32 r.36                 -928.956      -980.643               
    33 r.37                        1             1             = 
    34 r.38                        1             1             = 
    35 r.39                        1             1             = 
    36 r.40                        1             1             = 
    37 r.41                        1             1             = 
    38 r.42                        1             1             = 
    39 r.43                        1             1             = 
    40 r.44                        1             1             = 
    41 r.45                     1001             2               
    42 r.46                    -1001         -1001               
    43 r.47                  2029.75      -982.729               
    44 r.48                     1001             2               
    45 r.49                    -1001         -1001               
    46 r.50                  2014.38      -987.786               
    47 r.51                     1001             2               
    48 r.52                    -1001         -1001               
    49 r.53                  2029.75      -972.375               
    50 r.54                     1001             2               
    51 r.55                    -1001         -1001               
    52 r.56                  2002.16      -981.259               
    53 r.57                     1001             2               
    54 r.58                    -1001         -1001               
    55 r.59                   999.25      -984.973               
    56 r.60                     1001             2               
    57 r.61                    -1001         -1001               
    58 r.62                  1983.42      -985.686               
    59 r.63                        2             2               
    60 r.64                       -2         -1001               
    61 r.65                 -986.273      -986.273               
    62 r.66                     1000             2               
    63 r.67                    -1000         -1001               
    64 r.68                   2001.5      -987.773               
    65 r.69                 -984.223      -984.223               
    66 r.70                  31.1523      -988.236               
    67 r.71                 -984.223      -984.223               
    68 r.72                  31.1523      -988.236               
    69 r.73                 -950.892      -966.266               
    70 r.74                  49.1085      -980.692               
    71 r.75                 -966.266      -966.266               
    72 r.76                  33.7336      -980.692               
    73 r.77                     1001             2               
    74 r.78                    -1001         -1001               
    75 r.79                  2049.11       -966.89               
    76 r.80                     1001             2               
    77 r.81                    -1001         -1001               
    78 r.82                  2033.73      -980.643               
    79 r.83                     1001             2               
    80 r.84                    -1001         -1001               
    81 r.85                  1970.25       15.7774               
    82 r.86                     1001             2               
    83 r.87                    -1001         -1001               
    84 r.88                  1985.62       11.7639               
    85 r.89                     1000             2               
    86 r.90                    -1000         -1001               
    87 r.91                     2000      -972.375               
    88 r.92                        2             2               
    89 r.93                       -2         -1001               
    90 r.94                 -12.2143      -981.259               
    91 r.95                     1000             2               
    92 r.96                    -1000         -1001               
    93 r.97                  969.499      -984.973               
    94 r.98                        2             2               
    95 r.99                       -2         -1001               
    96 r.100                -30.9552      -985.686               
    97 r.101                    1001             2               
    98 r.102                   -1001         -1001               
    99 r.103                 1983.98      -986.273               
   100 r.104                    1001             2               
   101 r.105                   -1001         -1001               
   102 r.106                 1987.12      -987.773               
   103 r.107                 45.5286      -982.729               
   104 r.108                -954.471      -987.786               
   105 r.109                 45.5286      -982.729               
   106 r.110                -954.471      -987.786               
   107 r.111                    1001             2               
   108 r.112                   -1001         -1001               
   109 r.113                 2019.36      -966.266               
   110 r.114                    1001             2               
   111 r.115                   -1001         -1001               
   112 r.116                 2019.36      -980.692               
   113 r.117                 19.3573       -966.89               
   114 r.118                -980.643      -980.643               
   115 r.119                 19.3573       -966.89               
   116 r.120                -980.643      -980.643               
   117 r.121                    1001             2               
   118 r.122                   -1001         -1001               
   119 r.123                 1970.25       15.7774               
   120 r.124                    1001             2               
   121 r.125                   -1001         -1001               
   122 r.126                 1997.84       11.7639               
   123 r.127                    1000             2               
   124 r.128                   -1000         -1001               
   125 r.129                    2000       17.2708               
   126 r.130                       2             2               
   127 r.131                      -2         -1001               
   128 r.132                 12.2143       12.2143               
   129 r.133                  1030.5      -972.375               
   130 r.134                 18.2869      -981.259               
   131 r.135                 30.9552      -972.375               
   132 r.136                -981.259      -981.259               
   133 r.137                    1001             2               
   134 r.138                   -1001         -1001               
   135 r.139                 1983.98      -986.273               
   136 r.140                    1001             2               
   137 r.141                   -1001         -1001               
   138 r.142                 1999.34      -987.773               
   139 r.143                 45.5286      -972.375               
   140 r.144                -966.686      -981.259               
   141 r.145                 45.5286      -972.375               
   142 r.146                -966.686      -981.259               
   143 r.147                    1001             2               
   144 r.148                   -1001         -1001               
   145 r.149                 2019.36      -966.266               
   146 r.150                    1001             2               
   147 r.151                   -1001         -1001               
   148 r.152                 2031.57      -980.692               
   149 r.153                 19.3573       -966.89               
   150 r.154                -980.643      -980.643               
   151 r.155                 31.5716       -966.89               
   152 r.156                -968.428      -980.643               
   153 r.157                    1001             2               
   154 r.158                   -1001         -1001               
   155 r.159                 3000.75       15.7774               
   156 r.160                    1001             2               
   157 r.161                   -1001         -1001               
   158 r.162                 2016.58       11.7639               
   159 r.163                    1000             2               
   160 r.164                   -1000         -1001               
   161 r.165                  3030.5       17.2708               
   162 r.166                       2             2               
   163 r.167                      -2         -1001               
   164 r.168                 30.9552       12.2143               
   165 r.169                    1001             2               
   166 r.170                   -1001         -1001               
   167 r.171                 3014.48      -986.273               
   168 r.172                    1001             2               
   169 r.173                   -1001         -1001               
   170 r.174                 2018.08      -987.773               
   171 r.175                -984.973      -984.973               
   172 r.176                -985.427      -985.686               
   173 r.177                -984.973      -984.973               
   174 r.178                -985.427      -985.686               
   175 r.179                    1001             2               
   176 r.180                   -1001         -1001               
   177 r.181                 3049.86      -966.266               
   178 r.182                    1001             2               
   179 r.183                   -1001         -1001               
   180 r.184                 2050.31      -980.692               
   181 r.185                 1049.86       -966.89               
   182 r.186                 49.8585      -980.643               
   183 r.187                 50.3125       -966.89               
   184 r.188                -949.688      -980.643               
   185 r.189                       2             2               
   186 r.190                      -2         -1001               
   187 r.191                 984.625       15.7774               
   188 r.192                    1000             2               
   189 r.193                   -1000         -1001               
   190 r.194                    2000       11.7639               
   191 r.195                    1001             2               
   192 r.196                   -1001         -1001               
   193 r.197                 2014.38       17.2708               
   194 r.198                    1001             2               
   195 r.199                   -1001         -1001               
   196 r.200                 2014.38       12.2143               
   197 r.201                    1001             2               
   198 r.202                   -1001         -1001               
   199 r.203                 2014.38        27.625               
   200 r.204                    1001             2               
   201 r.205                   -1001         -1001               
   202 r.206                 2002.16       18.7409               
   203 r.207                    1001             2               
   204 r.208                   -1001         -1001               
   205 r.209                 983.875       15.0274               
   206 r.210                    1001             2               
   207 r.211                   -1001         -1001               
   208 r.212                 1983.42       14.3142               
   209 r.213                -970.495      -986.273               
   210 r.214                 32.6518      -987.773               
   211 r.215                -970.495      -986.273               
   212 r.216                 32.6518      -987.773               
   213 r.217                -966.266      -966.266               
   214 r.218                 33.7336      -980.692               
   215 r.219                -966.266      -966.266               
   216 r.220                 33.7336      -980.692               
   217 r.221                 33.7336       -966.89               
   218 r.222                -966.266      -980.643               
   219 r.223                 33.7336       -966.89               
   220 r.224                -966.266      -980.643               
   221 r.225                    1001             2               
   222 r.226                   -1001         -1001               
   223 r.227                 1980.64       17.2708               
   224 r.228                    1001             2               
   225 r.229                   -1001         -1001               
   226 r.230                 1980.64       12.2143               
   227 r.231                    1001             2               
   228 r.232                   -1001         -1001               
   229 r.233                 1980.64        27.625               
   230 r.234                    1001             2               
   231 r.235                   -1001         -1001               
   232 r.236                 1968.43       18.7409               
   233 r.237                    1001             2               
   234 r.238                   -1001         -1001               
   235 r.239                 950.142       15.0274               
   236 r.240                    1001             2               
   237 r.241                   -1001         -1001               
   238 r.242                 1949.69       14.3142               
   239 r.243                    1001             2               
   240 r.244                   -1001         -1001               
   241 r.245                    2000       -966.89               
   242 r.246                    1001             2               
   243 r.247                   -1001         -1001               
   244 r.248                    2000      -980.643               
   245 r.249                    1001             2               
   246 r.250                   -1001         -1001               
   247 r.251                 1950.89       15.7774               
   248 r.252                    1001             2               
   249 r.253                   -1001         -1001               
   250 r.254                 1966.27       11.7639               
   251 r.255                    1001             2               
   252 r.256                   -1001         -1001               
   253 r.257                    2000       33.7336               
   254 r.258                    1001             2               
   255 r.259                   -1001         -1001               
   256 r.260                    2000       19.3079               

   No. Column name       Activity     Lower bound   Upper bound
------ ------------    ------------- ------------- -------------
     1 tt                    71.0442             0               
     2 s_1_1        *              1             0             1 
     3 t_1_1                 49.1085             0               
     4 s_1_7        *              1             0             1 
     5 s_2_1        *              0             0             1 
     6 t_2_1                 33.7336             0               
     7 s_2_7        *              0             0             1 
     8 s_1_2        *              0             0             1 
     9 t_1_2                 19.3573             0               
    10 s_1_8        *              0             0             1 
    11 s_2_2        *              1             0             1 
    12 t_2_2                 19.3573             0               
    13 s_2_8        *              1             0             1 
    14 s_1_3        *              0             0             1 
    15 t_1_3                 19.3573             0               
    16 s_2_3        *              1             0             1 
    17 t_2_3                 31.5716             0               
    18 s_1_4        *              0             0             1 
    19 t_1_4                 1049.86             0               
    20 s_2_4        *              1             0             1 
    21 t_2_4                 50.3125             0               
    22 s_1_5        *              1             0             1 
    23 t_1_5                 33.7336             0               
    24 s_2_5        *              0             0             1 
    25 t_2_5                 33.7336             0               
    26 s_1_6        *              1             0             1 
    27 t_1_6                 64.8859             0               
    28 s_2_6        *              0             0             1 
    29 t_2_6                 64.8859             0               
    30 t_1_7                       0             0               
    31 t_2_7                       0             0               
    32 t_1_8                       0             0               
    33 t_2_8                       0             0               
    34 r_1_1_2      *              1             0             1 
    35 u_1_1_2      *              0             0             1 
    36 r_2_1_2      *              1             0             1 
    37 u_2_1_2      *              0             0             1 
    38 r_1_1_3      *              1             0             1 
    39 u_1_1_3      *              0             0             1 
    40 r_2_1_3      *              1             0             1 
    41 u_2_1_3      *              0             0             1 
    42 r_1_1_4      *              1             0             1 
    43 u_1_1_4      *              0             0             1 
    44 r_2_1_4      *              1             0             1 
    45 u_2_1_4      *              0             0             1 
    46 r_1_1_5      *              0             0             1 
    47 u_1_1_5      *              1             0             1 
    48 r_2_1_5      *              1             0             1 
    49 u_2_1_5      *              0             0             1 
    50 r_1_1_8      *              1             0             1 
    51 u_1_1_8      *              0             0             1 
    52 r_2_1_8      *              1             0             1 
    53 u_2_1_8      *              0             0             1 
    54 r_1_2_3      *              1             0             1 
    55 u_1_2_3      *              0             0             1 
    56 r_2_2_3      *              0             0             1 
    57 u_2_2_3      *              0             0             1 
    58 r_1_2_4      *              1             0             1 
    59 u_1_2_4      *              0             0             1 
    60 r_2_2_4      *              0             0             1 
    61 u_2_2_4      *              0             0             1 
    62 r_1_2_5      *              1             0             1 
    63 u_1_2_5      *              0             0             1 
    64 r_2_2_5      *              1             0             1 
    65 u_2_2_5      *              0             0             1 
    66 r_1_2_7      *              1             0             1 
    67 u_1_2_7      *              0             0             1 
    68 r_2_2_7      *              1             0             1 
    69 u_2_2_7      *              0             0             1 
    70 r_1_3_5      *              1             0             1 
    71 u_1_3_5      *              0             0             1 
    72 r_2_3_5      *              1             0             1 
    73 u_2_3_5      *              0             0             1 
    74 r_1_3_7      *              1             0             1 
    75 u_1_3_7      *              0             0             1 
    76 r_2_3_7      *              1             0             1 
    77 u_2_3_7      *              0             0             1 
    78 r_1_4_5      *              1             0             1 
    79 u_1_4_5      *              0             0             1 
    80 r_2_4_5      *              1             0             1 
    81 u_2_4_5      *              0             0             1 
    82 r_1_4_7      *              1             0             1 
    83 u_1_4_7      *              0             0             1 
    84 r_2_4_7      *              1             0             1 
    85 u_2_4_7      *              0             0             1 
    86 r_1_7_8      *              1             0             1 
    87 u_1_7_8      *              0             0             1 
    88 r_2_7_8      *              1             0             1 
    89 u_2_7_8      *              0             0             1 

Integer feasibility conditions:

KKT.PE: max.abs.err = 9.09e-13 on row 155
        max.rel.err = 1.49e-16 on row 155
        High quality

KKT.PB: max.abs.err = 2.27e-13 on row 65
        max.rel.err = 2.31e-16 on row 65
        High quality

End of output
